p cnf 48 154
1 -2 0
2 -1 0
3 -4 0
4 -3 0
5 -6 0
6 -5 0
7 -8 0
8 -7 0
9 -10 0
10 -9 0
11 -12 0
12 -11 0
13 -14 0
14 -13 0
15 -16 0
16 -15 0
17 -18 0
18 -17 0
19 -20 0
20 -19 0
21 -22 0
22 -21 0
23 -24 0
24 -23 0
9 25 0
1 25 0
-9 -25 -1 0
11 26 0
-25 26 0
25 -11 -26 0
3 27 0
11 27 0
-3 -11 -27 0
3 28 0
28 -25 0
-28 25 -3 0
5 29 0
-27 -28 29 -26 0
28 -5 -29 0
-5 -29 27 0
-5 -29 26 0
13 30 0
-27 -28 30 -26 0
28 -13 -30 0
-13 -30 27 0
-13 -30 26 0
5 31 0
13 31 0
-5 -13 -31 0
-15 31 0
-15 30 0
-15 29 0
1 32 0
9 32 0
-1 -9 -32 0
-33 11 3 0
-32 -33 3 0
-32 -33 11 0
33 -3 -11 0
33 32 -3 0
33 32 -11 0
-34 5 13 0
33 -34 5 0
33 -34 13 0
34 -5 -13 0
34 -5 -33 0
34 -13 -33 0
15 -35 7 34 0
-15 -35 7 -34 0
15 -35 -34 -7 0
-15 -35 34 -7 0
35 -7 -15 -34 0
35 15 34 -7 0
-15 35 7 34 0
35 15 7 -34 0
-23 -35 0
-5 0
-13 0
-23 0
1 -9 -36 0
-36 9 -1 0
36 -1 -9 0
1 36 9 0
-17 36 -37 0
17 -36 -37 0
-17 37 -36 0
17 36 37 0
-37 0
17 38 0
19 38 0
-17 -19 -38 0
38 -21 0
-15 -7 0
-7 31 0
30 -7 0
29 -7 0
17 39 0
39 -36 0
-17 36 -39 0
11 -40 32 3 0
-32 -40 3 -11 0
-32 11 -40 -3 0
-40 32 -3 -11 0
40 -3 -11 -32 0
40 11 32 -3 0
40 32 3 -11 0
-32 40 11 3 0
-40 41 0
-39 41 0
40 -41 39 0
19 42 0
-39 42 0
39 -19 -42 0
19 43 0
-40 43 0
40 -43 -19 0
33 -44 5 13 0
-33 -13 -44 5 0
-33 -5 -44 13 0
33 -5 -13 -44 0
44 -5 -13 -33 0
33 -5 44 13 0
33 44 -13 5 0
-33 44 5 13 0
44 45 0
-41 -43 45 -42 0
-45 43 -44 0
-45 -44 42 0
-45 41 -44 0
21 46 0
-41 -43 -42 46 0
-21 43 -46 0
-21 42 -46 0
41 -21 -46 0
21 47 0
44 47 0
-21 -44 -47 0
-23 47 0
-23 46 0
-23 45 0
-35 47 0
-35 46 0
-35 45 0
-7 0
-15 0
44 -21 0
21 -44 0
35 -23 0
23 -35 0
40 -48 -19 0
-40 -48 19 0
-40 48 -19 0
40 48 19 0
-48 0
